NAME : portcgen-10-60
COMMENT : portcgen N=10, seed=60
TYPE : TSP
DIMENSION : 10
EDGE_WEIGHT_TYPE : EUC_2D
NODE_COORD_SECTION
1 72 98
2 66 79
3 87 52
4 121 72
5 83 98
6 84 78
7 81 61
8 64 94
9 77 80
10 83 57
